# Solution for model GasLib-40
# Objective value = 1.2795842918397112e+01
loadshed[innode_1] 0
loadshed[innode_2] 0
loadshed[innode_3] 0
loadshed[innode_4] 0
loadshed[innode_5] 0
loadshed[innode_6] 0
loadshed[innode_7] 0
loadshed[innode_8] 0
loadshed[source_1] -2.1068152162808973e-01
loadshed[source_2] -4.0758642012125090e-02
loadshed[source_3] 3.3238026380486385e-01
loadshed[sink_1] 0
loadshed[sink_2] 0
loadshed[sink_3] 0
loadshed[sink_4] 0
loadshed[sink_5] 0
loadshed[sink_6] 0
loadshed[sink_7] 0
loadshed[sink_8] 0
loadshed[sink_9] 0
loadshed[sink_10] 0
loadshed[sink_11] 0
loadshed[sink_12] 7.8242096825867680e-01
loadshed[sink_13] 0
loadshed[sink_14] 0
loadshed[sink_15] 0
loadshed[sink_16] 0
loadshed[sink_17] 0
loadshed[sink_18] 0
loadshed[sink_19] 0
loadshed[sink_20] 0
loadshed[sink_21] 0
loadshed[sink_22] 0
loadshed[sink_23] 0
loadshed[sink_24] 0
loadshed[sink_25] 0
loadshed[sink_26] 0
loadshed[sink_27] 0
loadshed[sink_28] 0
loadshed[sink_29] 0
flow[source_1,sink_3] 1.9139697805460736e+02
flow[innode_1,sink_16] 1.6354166666666970e+01
flow[innode_6,sink_13] 8.9349771216498084e+00
flow[sink_13,sink_14] -7.4191895450168595e+00
flow[sink_14,sink_10] -2.3773356211683677e+01
flow[sink_25,sink_26] 2.1616249041493791e+02
flow[sink_26,sink_9] 1.2891113921259770e+02
flow[sink_9,sink_18] 1.1255697254593103e+02
flow[sink_26,sink_4] 7.0897184535673546e+01
flow[sink_4,sink_20] 0
flow[sink_18,sink_6] 9.6202805879264361e+01
flow[sink_25,innode_8] -1.5868864472127098e+02
flow[sink_6,sink_7] 4.7140305879263906e+01
flow[sink_6,sink_22] 3.2708333333333641e+01
flow[sink_7,sink_24] 3.6266657081602894e+01
flow[sink_22,sink_1] 1.6354166666666970e+01
flow[sink_24,sink_21] 1.9912490414936226e+01
flow[sink_21,sink_12] 3.5583237482695567e+00
flow[sink_7,sink_5] -5.4805178690050553e+00
flow[sink_5,sink_17] -2.1834684535671727e+01
flow[sink_17,sink_4] -5.4543017869006917e+01
flow[sink_17,sink_8] 1.6354166666668334e+01
flow[sink_3,sink_23] 16.3541666666697
flow[sink_8,sink_20] 0
flow[sink_25,sink_20] 1.6354166666668618e+01
flow[sink_25,sink_15] -9.9117156148651759e+01
flow[sink_15,sink_29] -6.4192378581905359e+01
flow[sink_29,sink_28] 1.6354166666667879e+01
flow[sink_29,sink_2] 6.7633110900079714e+01
flow[sink_2,sink_15] 5.1278944233413085e+01
flow[sink_29,innode_7] -1.6453382281531964e+02
flow[innode_4,sink_19] 4.0346721405406242e+01
flow[sink_19,innode_3] 72.8358562116839
flow[innode_4,innode_5] 6.5197468139609555e+01
flow[sink_27,innode_5] -6.5197468139609555e+01
flow[sink_27,sink_19] 4.8843301472942926e+01
flow[sink_10,sink_11] 3.2708333333333641e+01
flow[sink_10,innode_2] 0
flow[sink_10,innode_3] -72.8358562116839
flow[innode_6,sink_25] -8.9349771216498084e+00
flow[sink_11,innode_1] 1.6354166666666970e+01
flow[sink_19,innode_2] 0
flow[source_3,innode_4] 1.0554418954501578e+02
flow[source_2,innode_7] 1.6453382281531964e+02
flow[sink_3,innode_8] 1.5868864472127098e+02
pressure[innode_1] 7.5187927827953246e+01
pressure[innode_2] 7.5339629135556791e+01
pressure[innode_3] 7.9217414756020119e+01
pressure[innode_4] 81.01325
pressure[innode_5] 8.0968403743540435e+01
pressure[innode_6] 7.4251162532039416e+01
pressure[innode_7] 81.01325
pressure[innode_8] 8.0373483018659229e+01
pressure[source_1] 81.01325
pressure[source_2] 81.01325
pressure[source_3] 81.01325
pressure[sink_1] 4.2568675179995829e+01
pressure[sink_2] 74.8993917725063
pressure[sink_3] 8.0373483018659229e+01
pressure[sink_4] 5.0012913745335673e+01
pressure[sink_5] 4.6301933280149619e+01
pressure[sink_6] 44.6697527903832
pressure[sink_7] 4.4022628756143462e+01
pressure[sink_8] 4.7311374257010620e+01
pressure[sink_9] 5.1311300884940430e+01
pressure[sink_10] 7.5339629135556791e+01
pressure[sink_11] 7.5187927827953246e+01
pressure[sink_12] 1.01325
pressure[sink_13] 7.4201905496341155e+01
pressure[sink_14] 7.4215182768007168e+01
pressure[sink_15] 7.4731977321281491e+01
pressure[sink_16] 7.4166277993135566e+01
pressure[sink_17] 4.7928459452424242e+01
pressure[sink_18] 4.7238654140754790e+01
pressure[sink_19] 7.9378701511834919e+01
pressure[sink_20] 7.0352379203873184e+01
pressure[sink_21] 2.2794963374516359e+00
pressure[sink_22] 4.3632444322350835e+01
pressure[sink_23] 8.0208765006999457e+01
pressure[sink_24] 2.5000086678869975e+00
pressure[sink_25] 7.4251162532039416e+01
pressure[sink_26] 5.9026965277306104e+01
pressure[sink_27] 8.0427385229949167e+01
pressure[sink_28] 7.6317332526583357e+01
pressure[sink_29] 7.6612614800200532e+01
interdiction[source_1,sink_3] 0
interdiction[innode_1,sink_16] 0
interdiction[innode_6,sink_13] 0
interdiction[sink_13,sink_14] 0
interdiction[sink_14,sink_10] 0
interdiction[sink_25,sink_26] 0
interdiction[sink_26,sink_9] 0
interdiction[sink_9,sink_18] 0
interdiction[sink_26,sink_4] 0
interdiction[sink_4,sink_20] 1
interdiction[sink_18,sink_6] 0
interdiction[sink_25,innode_8] 0
interdiction[sink_6,sink_7] 0
interdiction[sink_6,sink_22] 0
interdiction[sink_7,sink_24] 0
interdiction[sink_22,sink_1] 0
interdiction[sink_24,sink_21] 0
interdiction[sink_21,sink_12] 0
interdiction[sink_7,sink_5] 0
interdiction[sink_5,sink_17] 0
interdiction[sink_17,sink_4] 0
interdiction[sink_17,sink_8] 0
interdiction[sink_3,sink_23] 0
interdiction[sink_8,sink_20] 1
interdiction[sink_25,sink_20] 0
interdiction[sink_25,sink_15] 0
interdiction[sink_15,sink_29] 0
interdiction[sink_29,sink_28] 0
interdiction[sink_29,sink_2] 0
interdiction[sink_2,sink_15] 0
interdiction[sink_29,innode_7] 0
interdiction[innode_4,sink_19] 0
interdiction[sink_19,innode_3] 0
interdiction[innode_4,innode_5] 0
interdiction[sink_27,innode_5] 0
interdiction[sink_27,sink_19] 0
interdiction[sink_10,sink_11] 0
interdiction[sink_10,innode_2] 0
interdiction[sink_10,innode_3] 0
interdiction[innode_6,sink_25] 0
interdiction[sink_11,innode_1] 0
interdiction[sink_19,innode_2] 1
interdiction[source_3,innode_4] 0
interdiction[source_2,innode_7] 0
interdiction[sink_3,innode_8] 0
WCcheckFlow[source_1,sink_3] 39
WCcheckFlow[innode_1,sink_16] 1
WCcheckFlow[innode_6,sink_13] 13
WCcheckFlow[sink_13,sink_14] 12
WCcheckFlow[sink_14,sink_10] 11
WCcheckFlow[sink_25,sink_26] 14
WCcheckFlow[sink_26,sink_9] 12
WCcheckFlow[sink_9,sink_18] 11
WCcheckFlow[sink_26,sink_4] 1
WCcheckFlow[sink_4,sink_20] 0
WCcheckFlow[sink_18,sink_6] 10
WCcheckFlow[sink_25,innode_8] -36
WCcheckFlow[sink_6,sink_7] 7
WCcheckFlow[sink_6,sink_22] 2
WCcheckFlow[sink_7,sink_24] 3
WCcheckFlow[sink_22,sink_1] 1
WCcheckFlow[sink_24,sink_21] 2
WCcheckFlow[sink_21,sink_12] 1
WCcheckFlow[sink_7,sink_5] 3
WCcheckFlow[sink_5,sink_17] 2
WCcheckFlow[sink_17,sink_4] 0
WCcheckFlow[sink_17,sink_8] 1
WCcheckFlow[sink_3,sink_23] 1
WCcheckFlow[sink_8,sink_20] 0
WCcheckFlow[sink_25,sink_20] 1
WCcheckFlow[sink_25,sink_15] 6
WCcheckFlow[sink_15,sink_29] 5
WCcheckFlow[sink_29,sink_28] 1
WCcheckFlow[sink_29,sink_2] 1
WCcheckFlow[sink_2,sink_15] 0
WCcheckFlow[sink_29,innode_7] 2
WCcheckFlow[innode_4,sink_19] -4
WCcheckFlow[sink_19,innode_3] -5
WCcheckFlow[innode_4,innode_5] 2
WCcheckFlow[sink_27,innode_5] -1
WCcheckFlow[sink_27,sink_19] 0
WCcheckFlow[sink_10,sink_11] 3
WCcheckFlow[sink_10,innode_2] 1
WCcheckFlow[sink_10,innode_3] 6
WCcheckFlow[innode_6,sink_25] -14
WCcheckFlow[sink_11,innode_1] 2
WCcheckFlow[sink_19,innode_2] 0
WCcheckFlow[source_3,innode_4] -1
WCcheckFlow[source_2,innode_7] -1
WCcheckFlow[sink_3,innode_8] 37
